NAME : rnd42_50.tsp
TYPE : TSP
DIMENSION : 50
EDGE_WEIGHT_TYPE : EUC_2D
NODE_COORD_SECTION
1 793 575
2 873 614
3 328 989
4 149 337
5 613 643
6 122 342
7 77 417
8 824 772
9 314 649
10 749 221
11 404 696
12 835 620
13 484 541
14 80 820
15 210 389
16 264 30
17 813 562
18 14 697
19 114 723
20 948 720
21 322 513
22 721 228
23 407 786
24 763 411
25 139 276
26 999 933
27 898 359
28 573 288
29 602 5
30 166 49
31 875 883
32 636 647
33 734 85
34 546 805
35 76 435
36 86 951
37 252 545
38 178 978
39 577 852
40 890 702
41 717 760
42 554 647
43 537 604
44 726 742
45 643 802
46 594 774
47 25 895
48 484 22
49 403 225
50 659 601
